\ENCODING=ISO-8859-1
\Problem name: IloCplex

Minimize
 obj: 1000000000000 x1 + x2 + 1000000000000 x3 + x4 + 1000000000000 x5 + x6
      + 1000000000000 x7 + x8 + 1000000000000 x9 + x10 + 1000000000000 x11
      + x12 + 1000000000000 x13 + x14 + 1000000000000 x15 + x16
      + 1000000000000 x17 + x18 + 1000000000000 x19 + x20 + 1000000000000 x21
      + x22 + 1000000000000 x23 + x24 + 1000000000000 x25 + x26
      + 1000000000000 x27 + x28 + x29 + 1000000000000 x30 + x31 + x32 + x33
      + 1000000000000 x34 + x35 + x36 + x37 + 1000000000000 x38 + x39 + x40
      + x41 + 1000000000000 x42 + x43 + x44 + x45 + x46 + 1000000000000 x47
      + x48 + x49 + x50 + 1000000000000 x51 + x52 + x53 + 1000000000000 x54
      + x55 + x56 + x57 + x58 + x59 + x60 + 1000000000000 x61 + x62 + x63 + x64
      + x65 + 1000000000000 x66 + x67 + x68 + x69 + 1000000000000 x70 + x71
      + x72 + 1000000000000 x73 + x74 + x75 + 1000000000000 x76 + x77 + x78
      + 1000000000000 x79 + x80 + x81 + x82 + 1000000000000 x83 + x84 + x85
      + 1000000000000 x86 + x87 + x88 + 1000000000000 x89 + x90
      + 1000000000000 x91 + x92 + x93 + 1000000000000 x94 + x95 + x96
      + 1000000000000 x97 + x98 + x99 + x100 + x101 + x102 + 1000000000000 x103
      + x104 + x105 + x106 + 1000000000000 x107 + x108 + x109 + x110
      + 1000000000000 x111 + x112 + x113 + x114 + 1000000000000 x115
      + 1000000000000 x116 + x117 + x118 + 1000000000000 x119
      + 1000000000000 x120 + x121 + x122 + 1000000000000 x123
      + 1000000000000 x124 + x125 + 1000000000000 x126 + x127 + x128
      + 1000000000000 x129 + x130 + x131 + x132 + 1000000000000 x133
      + 1000000000000 x134 + 1000000000000 x135 + x136 + x137
      + 1000000000000 x138 + 1000000000000 x139 + 1000000000000 x140
Subject To
 c1:  x1 + x2  = 1
 c2:  x3 + x4  = 1
 c3:  x5 + x6  = 1
 c4:  x7 + x8  = 1
 c5:  x9 + x10  = 1
 c6:  x11 + x12  = 1
 c7:  x13 + x14  = 1
 c8:  x15 + x16  = 1
 c9:  x17 + x18  = 1
 c10: x19 + x20  = 1
 c11: x21 + x22  = 1
 c12: x23 + x24  = 1
 c13: x25 + x26  = 1
 c14: x27 + x28 + x29  = 1
 c15: x30 + x31 + x32 + x33  = 1
 c16: x34 + x35 + x36 + x37  = 1
 c17: x38 + x39 + x40 + x41  = 1
 c18: x42 + x43 + x44 + x45 + x46  = 1
 c19: x47 + x48 + x49 + x50  = 1
 c20: x51 + x52 + x53  = 1
 c21: x54 + x55 + x56 + x57 + x58 + x59 + x60  = 1
 c22: x61 + x62 + x63 + x64 + x65  = 1
 c23: x66 + x67 + x68 + x69  = 1
 c24: x70 + x71 + x72  = 1
 c25: x73 + x74 + x75  = 1
 c26: x76 + x77 + x78  = 1
 c27: x79 + x80 + x81 + x82  = 1
 c28: x80 + x83 + x84 + x85  = 1
 c29: x77 + x86 + x87 + x88  = 1
 c30: x78 + x88 + x89 + x90  = 1
 c31: x72 + x74 + x91 + x92 + x93  = 1
 c32: x71 + x92 + x94 + x95 + x96  = 1
 c33: x75 + x81 + x84 + x97 + x98 + x99 + x100 + x101 + x102  = 1
 c34: x67 + x103 + x104 + x105 + x106  = 1
 c35: x63 + x99 + x107 + x108 + x109 + x110  = 1
 c36: x53 + x105 + x111 + x112 + x113 + x114  = 1
 c37: x48 + x109 + x115  = 1
 c38: x41 + x46 + x50 + x69 + x95 + x112 + x116 + x117 + x118  = 1
 c39: x39 + x60 + x65 + x68 + x104 + x110 + x114 + x117 + x118 + x119  = 1
 c40: x45 + x49 + x62 + x87 + x90 + x101 + x108 + x120 + x121 + x122  = 1
 c41: x52 + x55 + x98 + x102 + x108 + x114 + x121 + x123  = 1
 c42: x43 + x59 + x64 + x93 + x96 + x106 + x109 + x121 + x124 + x125  = 1
 c43: x37 + x113 + x117 + x126 + x127 + x128  = 1
 c44: x35 + x58 + x100 + x102 + x113 + x122 + x125 + x129 + x130 + x131 + x132
       = 1
 c45: x101 + x118 + x122 + x125 + x128 + x130 + x131 + x133  = 1
 c46: x36 + x57 + x82 + x85 + x100 + x106 + x110 + x112 + x127 + x128 + x132
      + x134  = 1
 c47: x33 + x87 + x90 + x98 + x130 + x131 + x132 + x135 + x136 + x137  = 1
 c48: x82 + x85 + x93 + x95 + x104 + x127 + x130 + x136 + x137 + x138  = 1
 c49: x31 + x136 + x137 + x139  = 1
 c50: x28 + x96 + x99 + x105 + x127 + x132 + x136 + x140  = 1
Bounds
      x39 = 0
      x40 = 0
      x45 = 0
      x46 = 0
      x49 = 0
      x50 = 0
      x62 = 0
      x69 = 0
      x78 = 0
      x87 = 0
      x88 = 0
      x95 = 0
      x101 = 0
      x108 = 0
      x112 = 0
      x117 = 0
      x118 = 0
      x121 = 0
      x122 = 0
End
